QBPP_HJ+_45_025_06_3
45 378 64
2 12 40 27 46 25 38 38 3 23 3 12 32 16 24 9 26 29 28 36 29 40 41 15 20 12 36 40 42 8 6 41 21 12 43 4 3 35 47 29 37 20 36 26 21
    0    0    0    0    0    0   67    0   74    0   37    0    0    0    0    0   97   79    0    0    0    0    0    0    0    0    0    0    0    0    3    0   42    0    0    0    0    0    0    0    0    0   79    0    0
    0    0    0   39    0    0    0    0   72    5    0    0    0    0    0    0    0    0    0    0   48    0   44    0    0   41    0   28    0    0   71   23    0   66    0    0   11    0    0    5    0    0    0    0    0
    0    0    0    0    0    0    0   46   28    0    0    0    0    0    0   93    0    0    0    0   64    0    0    0   65    0    0    0    0   70   75   71    0   98    0    0   65   10    0   59    0   84    0    0   29
    0   39    0    0    0    0    0   22    0    0   42    0    0    0    0    0    0    0    0    0    0    0   74    0   67   31    0    0    0    0    0   70   20    5    0   55    0    3    0    0    0    0    0    0    0
    0    0    0    0    0    0    0    0    0    0    0    0    0    0    0    0    0    0    0    0   16    0    0   49    0   80    0   40    0   12   58    0   33    0   47   63    0   51    0   78    0    0    0   15   45
    0    0    0    0    0    0    0   58    0   41    0    0    0    0    0    0    0    0    0    0    0    0    0    0    0    0    0    0    0    0    0    0    0    0    0    0    0    0   87   99   59    0    0    0   99
   67    0    0    0    0    0    0    0    0    0   55   65    0    0    0    0    0    0    0   42   37    0    0    0    0    0    0    0    0    0    9   50    0   10    0   91    0    0   71    0    0    0    0    0    0
    0    0   46   22    0   58    0    0    0   55    0   13   54   10    0    0    0    0    0    0    0    0   36    0    0    0    0    9   75    0    0    0    0    0   67    0    0    0   54   32   62    0   62   13    0
   74   72   28    0    0    0    0    0    0    0    0    0    0    0    0    0    0    0    0   80   25    0    0    0    0   27    0    0    0    0    9   82    0   58    0   80    0    0    0    0   84    0   16    0    0
    0    5    0    0    0   41    0   55    0    0    0    0    0    0   23    0    0   96    0    0    0   75    0    0    0    0    0    0    0    0    0    0    0    0    0   35   53   82    0    4    0    0    0   41    0
   37    0    0   42    0    0   55    0    0    0    0   44    0    0   39   77    0    0    0    0    0    0  100   40    0    0   38    0    0    0    0    0    0    0    0    0    0    0    0   51    0    0    0   30    0
    0    0    0    0    0    0   65   13    0    0   44    0    0    0    0    0   53    0   36   67   48    0    0    0   97    0   91   31    0    0    0    0    0   63    0    0   36    0   77    0    0   53   11    9    0
    0    0    0    0    0    0    0   54    0    0    0    0    0   30    0   81    0    0    0    0    0    0    0    0   77   71    0    0    0    0   85    0    0    0    0    0    0    0    0   54    0    0    0    3    0
    0    0    0    0    0    0    0   10    0    0    0    0   30    0    0    0    0    0   42   56    0   21    0    0   68    0    0   63    0    0    0    0    0   97    0   45    0    0    0    0    0    0    0    0    0
    0    0    0    0    0    0    0    0    0   23   39    0    0    0    0    0    0    0    0    0    2   99    0    0    0    0    0   90    0    0    0    0    0   51    0   12    0   90    0   37    0    0    0    0   88
    0    0   93    0    0    0    0    0    0    0   77    0   81    0    0    0   48    0    0    0    0    0    0    0    0    0    0   74    0    0    0    0    0   96    0    0    0    0    0    0    0    0    3    0    0
   97    0    0    0    0    0    0    0    0    0    0   53    0    0    0   48    0    0    0    4    0    0    0    0    0   10    0   88    0    0    0    0   85    0    0   88    0   62    0    0   69   54   68    0    0
   79    0    0    0    0    0    0    0    0   96    0    0    0    0    0    0    0    0   33    0    0    0    0    0    0    0   41    0    0    0    0   18    0    0   35   15    0    0    0   68    0    0    0    0    0
    0    0    0    0    0    0    0    0    0    0    0   36    0   42    0    0    0   33    0   29    0    5   51    0    0   81    0   74    0    0    0    0    0    0   11    0    0    0    0    0    9    0    0    0    0
    0    0    0    0    0    0   42    0   80    0    0   67    0   56    0    0    4    0   29    0    0   40    0    0    0   58    0    0   73    0    0    0    0    0    0   13    0   83   32    0    0    0   20   18    0
    0   48   64    0   16    0   37    0   25    0    0   48    0    0    2    0    0    0    0    0    0    0    0    0    5   45    0    0    0   71    0    0   52    0    0   85    0   49   63    0    0    0   29   44    0
    0    0    0    0    0    0    0    0    0   75    0    0    0   21   99    0    0    0    5   40    0    0    0    0    0    0    0   59    0    0   42    0   94    0   79    0   22    0    0    0    0    0    0    0    0
    0   44    0   74    0    0    0   36    0    0  100    0    0    0    0    0    0    0   51    0    0    0    0    0   15    0   85    0   96   63    0    0    0    0    0    4    0    0    0    0   15    0    0   46   10
    0    0    0    0   49    0    0    0    0    0   40    0    0    0    0    0    0    0    0    0    0    0    0    0   44    0    0   69    0    0    0    0    0   53    0    0    0    0    0    0    0   49    0    0    0
    0    0   65   67    0    0    0    0    0    0    0   97   77   68    0    0    0    0    0    0    5    0   15   44    0    0    0    0    0  100    0    0    0    0    0    0    0    0    0    0   84    0    0    0    0
    0   41    0   31   80    0    0    0   27    0    0    0   71    0    0    0   10    0   81   58   45    0    0    0    0    0   78    0   32    0    0   31    0    0   34    0    0   98    0   49    0    0    0    0    0
    0    0    0    0    0    0    0    0    0    0   38   91    0    0    0    0    0   41    0    0    0    0   85    0    0   78    0   81   46    0    0   98    0    0    0   35    0    0    0    0    0   66    0    0    0
    0   28    0    0   40    0    0    9    0    0    0   31    0   63   90   74   88    0   74    0    0   59    0   69    0    0   81    0    0    0    0   97    0    0    0   46    0    0    0    0    0    0    0    0    0
    0    0    0    0    0    0    0   75    0    0    0    0    0    0    0    0    0    0    0   73    0    0   96    0    0   32   46    0    0    0    0    0   18    0    0   90    0    0   79    0    0    0    1    0    0
    0    0   70    0   12    0    0    0    0    0    0    0    0    0    0    0    0    0    0    0   71    0   63    0  100    0    0    0    0    0    0    0    0    0    0   31    0    0   78    0    0    0    0    0    0
    3   71   75    0   58    0    9    0    9    0    0    0   85    0    0    0    0    0    0    0    0   42    0    0    0    0    0    0    0    0    0    0   81    0   52   51    0    0    0    0   91    0    0    0    0
    0   23   71   70    0    0   50    0   82    0    0    0    0    0    0    0    0   18    0    0    0    0    0    0    0   31   98   97    0    0    0    0    0    0   28    0    0    0   55    0    0   74    0    0    0
   42    0    0   20   33    0    0    0    0    0    0    0    0    0    0    0   85    0    0    0   52   94    0    0    0    0    0    0   18    0   81    0    0    0   26    0    0   98    0   62    0    0    0    0    0
    0   66   98    5    0    0   10    0   58    0    0   63    0   97   51   96    0    0    0    0    0    0    0   53    0    0    0    0    0    0    0    0    0    0    0   81    0    0   62    0    0    0    0    0    0
    0    0    0    0   47    0    0   67    0    0    0    0    0    0    0    0    0   35   11    0    0   79    0    0    0   34    0    0    0    0   52   28   26    0    0    0    0    0    0    0    0    0   69    0    0
    0    0    0   55   63    0   91    0   80   35    0    0    0   45   12    0   88   15    0   13   85    0    4    0    0    0   35   46   90   31   51    0    0   81    0    0   43    0    0   30    0    0    0    0    0
    0   11   65    0    0    0    0    0    0   53    0   36    0    0    0    0    0    0    0    0    0   22    0    0    0    0    0    0    0    0    0    0    0    0    0   43    0    0    0    0    0   99    0   41    0
    0    0   10    3   51    0    0    0    0   82    0    0    0    0   90    0   62    0    0   83   49    0    0    0    0   98    0    0    0    0    0    0   98    0    0    0    0    0    0    0   88    0    0    0    0
    0    0    0    0    0   87   71   54    0    0    0   77    0    0    0    0    0    0    0   32   63    0    0    0    0    0    0    0   79   78    0   55    0   62    0    0    0    0    0    0    0    0    0    0    0
    0    5   59    0   78   99    0   32    0    4   51    0   54    0   37    0    0   68    0    0    0    0    0    0    0   49    0    0    0    0    0    0   62    0    0   30    0    0    0    0    0    0    0    0    0
    0    0    0    0    0   59    0   62   84    0    0    0    0    0    0    0   69    0    9    0    0    0   15    0   84    0    0    0    0    0   91    0    0    0    0    0    0   88    0    0    0   27    0   14    0
    0    0   84    0    0    0    0    0    0    0    0   53    0    0    0    0   54    0    0    0    0    0    0   49    0    0   66    0    0    0    0   74    0    0    0    0   99    0    0    0   27    0    0    0    0
   79    0    0    0    0    0    0   62   16    0    0   11    0    0    0    3   68    0    0   20   29    0    0    0    0    0    0    0    1    0    0    0    0    0   69    0    0    0    0    0    0    0    0    0    0
    0    0    0    0   15    0    0   13    0   41   30    9    3    0    0    0    0    0    0   18   44    0   46    0    0    0    0    0    0    0    0    0    0    0    0    0   41    0    0    0   14    0    0    0   81
    0    0   29    0   45   99    0    0    0    0    0    0    0    0   88    0    0    0    0    0    0    0   10    0    0    0    0    0    0    0    0    0    0    0    0    0    0    0    0    0    0    0    0   81    0
